local_stuff/loop_inv_stuff/loop_inv_oai/repo/z3/12.out
STDOUT:
sat
(
  (define-fun inv ((x!0 Int) (x!1 Int)) Bool
    (and (or (not (>= x!0 20)) (not (<= x!1 0))) (not (<= x!1 (- 10)))))
)
(error "line 18 column 0: invalid command, '(' expected")
(error "line 18 column 15: invalid command, symbol expected")
(error "line 19 column 0: unexpected character")
(error "line 24 column 9: invalid command, symbol expected")
unsupported
(error "line 26 column 3: invalid command, '(' expected")
unsupported
(error "line 27 column 3: invalid command, '(' expected")
unsupported
(error "line 28 column 3: invalid command, '(' expected")
unsupported
(error "line 31 column 2: invalid command, '(' expected")
(error "line 32 column 3: unexpected character")
(error "line 36 column 3: unexpected character")
unsupported
(error "line 38 column 11: unexpected character")
unsupported
(error "line 40 column 3: unexpected character")
(error "line 41 column 0: unexpected character")


STDERR:
; x line: 25 position: 17
; y line: 26 position: 17
; y line: 27 position: 16
; nondet line: 30 position: 16
; y==0 line: 38 position: 9
; x line: 39 position: 18
